LibMLKEM/why3-cvc5/mlkem.adb_975_33_range_check_1.smt2
;; produced by cvc5.drv ;;
(set-logic ALL)
(set-info :smt-lib-version 2.6)
;;; generated by SMT-LIB2 driver
;;; SMT-LIB2 driver: bit-vectors, common part
;;; SMT-LIB2: integer arithmetic
;; "pow2"
(declare-fun pow2 (Int) Int)

(declare-const two_power_size_minus_one Int)

;; "two_power_size_minus_one_val"
(assert (= two_power_size_minus_one (pow2 (- 16 1))))

;; "min"
(define-fun min ((x Int) (y Int)) Int
  (ite (<= x y) x y))

;; "max"
(define-fun max ((x Int) (y Int)) Int
  (ite (<= x y) y x))

;; "Min_r"
(assert (forall ((x Int) (y Int)) (=> (<= y x) (= (min x y) y))))

;; "Max_l"
(assert (forall ((x Int) (y Int)) (=> (<= y x) (= (max x y) x))))

;; "Min_comm"
(assert (forall ((x Int) (y Int)) (= (min x y) (min y x))))

;; "Max_comm"
(assert (forall ((x Int) (y Int)) (= (max x y) (max y x))))

;; "Min_assoc"
(assert
  (forall ((x Int) (y Int) (z Int)) (= (min (min x y) z) (min x (min y z)))))

;; "Max_assoc"
(assert
  (forall ((x Int) (y Int) (z Int)) (= (max (max x y) z) (max x (max y z)))))

(declare-sort udu 0)

;; "in_range"
(define-fun in_range ((x (_ BitVec 16))) Bool
  (and (bvule #x0000 x) (bvule x #x03FF)))

;; "to_rep"
(declare-fun to_rep (udu) (_ BitVec 16))

;; "of_rep"
(declare-fun of_rep ((_ BitVec 16)) udu)

;; "inversion_axiom"
(assert
  (forall ((x udu)) (! (= (of_rep (to_rep x)) x) :pattern ((to_rep x)) )))

;; "range_axiom"
(assert (forall ((x udu)) (! (in_range (to_rep x)) :pattern ((to_rep x)) )))

;; "coerce_axiom"
(assert
  (forall ((x (_ BitVec 16)))
    (! (let ((y (bvurem x #x0400)))
         (=> (in_range y) (= (to_rep (of_rep x)) y))) :pattern ((to_rep
                                                                  (of_rep x))) )))

(declare-sort map1 0)

;; "has_bounds"
(declare-fun has_bounds (map1
  Int
  Int) Bool)

(declare-const two_power_size_minus_one1 Int)

;; "two_power_size_minus_one_val"
(assert (= two_power_size_minus_one1 (pow2 (- 8 1))))

(declare-sort byte 0)

;; "to_rep"
(declare-fun to_rep1 (byte) (_ BitVec 8))

;; "of_rep"
(declare-fun of_rep1 ((_ BitVec 8)) byte)

;; "inversion_axiom"
(assert
  (forall ((x byte)) (! (= (of_rep1 (to_rep1 x)) x) :pattern ((to_rep1 x)) )))

;; "range_axiom"
(assert true)

;; "coerce_axiom"
(assert
  (forall ((x (_ BitVec 8)))
    (! (= (to_rep1 (of_rep1 x)) x) :pattern ((to_rep1 (of_rep1 x))) )))

(declare-sort map2 0)

;; "has_bounds"
(declare-fun has_bounds1 (map2
  Int
  Int) Bool)

(declare-const b map2)

(declare-sort map3 0)

;; "has_bounds"
(declare-fun has_bounds2 (map3
  Int
  Int) Bool)

;; "get"
(declare-fun get (map3
  Int) map1)

;; "dynamic_invariant"
(define-fun dynamic_invariant ((temp___expr_1655 map3) (temp___is_init_1651 Bool) (temp___skip_constant_1652 Bool) (temp___do_toplevel_1653 Bool) (temp___do_typ_inv_1654 Bool)) Bool
  (and
    (has_bounds2 temp___expr_1655 0 2)
    (forall ((temp___1656 Int))
      (=>
        (and (<= 0 temp___1656) (<= temp___1656 2))
        (has_bounds (get temp___expr_1655 temp___1656) 0 255)))))

(declare-sort tinteger_32B 0)

;; "tinteger_32B'int"
(declare-fun tinteger_32Bqtint (tinteger_32B) Int)

;; "tinteger_32B'axiom"
(assert
  (forall ((i tinteger_32B))
    (and
      (<= (- 2147483648) (tinteger_32Bqtint i))
      (<= (tinteger_32Bqtint i) 2147483647))))

;; "in_range"
(define-fun in_range1 ((x Int)) Bool
  (and (<= (- 2147483648) x) (<= x 2147483647)))

;; "to_rep"
(define-fun to_rep2 ((x tinteger_32B)) Int
  (tinteger_32Bqtint x))

;; "of_rep"
(declare-fun of_rep2 (Int) tinteger_32B)

;; "inversion_axiom"
(assert
  (forall ((x tinteger_32B))
    (! (= (of_rep2 (to_rep2 x)) x) :pattern ((to_rep2 x)) )))

;; "range_axiom"
(assert
  (forall ((x tinteger_32B))
    (! (in_range1 (to_rep2 x)) :pattern ((to_rep2 x)) )))

;; "coerce_axiom"
(assert
  (forall ((x Int))
    (! (=> (in_range1 x) (= (to_rep2 (of_rep2 x)) x)) :pattern ((to_rep2
                                                                  (of_rep2 x))) )))

;; Goal "def'vc"
;; File "mlkem.adb", line 969, characters 0-0
(assert
  (not
  (forall ((r map3))
    (=>
      (has_bounds1 b 0 959)
      (=>
        (dynamic_invariant r false false true true)
        (forall ((i Int))
          (=>
            (= i 0)
            (=>
              (= (and (ite (<= 0 i) true false) (ite (<= i 2) true false)) true)
              (forall ((r1 map3) (i1 Int))
                (=>
                  (= (and (ite (and
                                 (dynamic_invariant r1 false true true true)
                                 (forall ((temp___4648 Int))
                                   (=>
                                     (and
                                       (<= 0 temp___4648)
                                       (<= temp___4648 2))
                                     (=>
                                       (or
                                         (< 2 temp___4648)
                                         (or
                                           (< temp___4648 0)
                                           (<= i1 temp___4648)))
                                       (= (get r1 temp___4648) (get
                                                                 r
                                                                 temp___4648))))))
                            true
                            false) (ite (and (<= 0 i1) (<= i1 2)) true false)) true)
                  (let ((temp___4642 (- (* (* (+ i1 1) 32) 10) 1)))
                    (let ((temp___4641 (* (* i1 32) 10)))
                      (=>
                        (<= temp___4641 temp___4642)
                        (and
                          (and (<= 0 temp___4641) (<= temp___4641 959))
                          (and (<= 0 temp___4642) (<= temp___4642 959))))))))))))))))

(check-sat)
